NAME: tsp30-12
TYPE: TSP
DIMENSION: 30
EDGE_WEIGHT_TYPE: EUC_2D
NODE_COORD_SECTION
0 84 20
1 7 92
2 2 91
3 29 77
4 17 62
5 44 39
6 96 79
7 56 97
8 89 83
9 20 47
10 17 5
11 78 86
12 48 58
13 18 87
14 10 80
15 77 55
16 19 25
17 45 90
18 74 36
19 75 81
20 27 36
21 82 59
22 5 33
23 85 61
24 64 14
25 24 83
26 49 48
27 0 27
28 50 53
29 45 15
EOF